38 89 24 30 8 26 69 40 10 80 41 39 72 48 85 66 99 73 21 93 74 43 95 16 44 57 37 84 61 79 33 3 1 63 42 96 17 51 14 28 47 52 90 50 23 77 12 75 15 71 5 92 59 32 18 58 27 25 94 49 11 6 36 7 76 68 31 45 64 54 13 67 97 55 60 82 78 56 2 62 20 46 81 22 91 87 88 53 35 29 98 65 9 4 70 86 34 19 0 83 

